CMD:
./solvers/bin/cadical --plain --no-reduce -t 1600 ./data/cnfs//cal84/cal84.2.cnf

c --- [ banner ] -------------------------------------------------------------
c 
c CaDiCaL SAT Solver
c Copyright (c) 2016-2024
c A. Biere, M. Fleury, N. Froleyks, K. Fazekas, F. Pollitt, T. Faller
c JKU Linz, University of Freiburg, TU Wien
c 
c Version 2.1.3 5296d3d2a9bf48c154ab2acb5e44625776d821bf
c g++ (Gentoo 12.3.1_p20230526 p2) 12.3.1 20230526 -Wall -Wextra -O3 -DNDEBUG
c Sat Aug 9 07:26:21 PDT 2025 Linux cedar2.int.cedar.computecanada.ca 5.14.0-362.24.2.el9_3.x86_64 x86_64
c 
c --- [ limit ] --------------------------------------------------------------
c 
c setting time limit to 1600 seconds real time (due to '-t 1600')
c 
c --- [ parsing input ] ------------------------------------------------------
c 
c reading DIMACS file from './data/cnfs//cal84/cal84.2.cnf'
c opening file to read './data/cnfs//cal84/cal84.2.cnf'
c found 'p cnf 64314 180948' header
c parsed 180948 clauses in 0.03 seconds process time
c 
c --- [ options ] ------------------------------------------------------------
c 
c   --compact=false                (different from default 'true')
c   --decompose=false              (different from default 'true')
c   --deduplicate=false            (different from default 'true')
c   --elim=false                   (different from default 'true')
c   --probe=false                  (different from default 'true')
c   --reduce=false                 (different from default 'true')
c   --subsume=false                (different from default 'true')
c   --ternary=false                (different from default 'true')
c   --transred=false               (different from default 'true')
c   --vivify=false                 (different from default 'true')
c 
c --- [ solving ] ------------------------------------------------------------
c 
c time measured in process time since initialization
c 
c  seconds  reductions  redundant  irredundant
c         MB    restarts       trail       variables
c          level   conflicts       glue         remaining
c 
c *  0.03 31  0 0   0    0    0  0% 0 166069 59825 93%
c {  0.04 31  0 0   0    0    0  0% 0 166069 59825 93%
c i  0.05 32 85 0  16  484  393 19% 3 166069 59728 93%
c i  0.05 32 84 0  16  488  395 19% 3 166069 59726 93%
c }  0.05 32 84 0  16  490  395 18% 3 166069 59503 93%
c 0  0.05 32 84 0  16  490  395 18% 3 166069 59503 93%
c 
c --- [ result ] -------------------------------------------------------------
c 
s UNSATISFIABLE
c 
c --- [ run-time profiling ] -------------------------------------------------
c 
c process time taken by individual solving procedures
c (percentage relative to process time for solving)
c 
c         0.03  137.31% parse
c         0.02   99.54% search
c         0.01   50.93% unstable
c         0.01   48.56% lucky
c         0.00    0.00% simplify
c   =================================
c         0.02   41.87% solve
c 
c last line shows process time for solving
c (percentage relative to total process time)
c 
c --- [ statistics ] ---------------------------------------------------------
c 
c chronological:               395        80.61 %  of conflicts
c conflicts:                   490     25107.60    per second
c decisions:                  5831    298780.49    per second
c fixed:                      4802         7.47 %  of all variables
c learned:                     479        97.76 %  per conflict
c learned_lits:               4174       100.00 %  learned literals
c minimized:                     0         0.00 %  learned literals
c shrunken:                   1598        38.28 %  learned literals
c minishrunken:                311         7.45 %  learned literals
c otfs:                          2         0.41 %  of conflict
c propagations:             346763        17.77 M  per second
c restarts:                     16        30.62    interval
c subsumed:                     81         0.05 %  of all clauses
c strengthened:                  2         0.00 %  of all clauses
c 
c seconds are measured in process time for solving
c 
c --- [ resources ] ----------------------------------------------------------
c 
c total process time since initialization:         0.05    seconds
c total real time since initialization:            0.05    seconds
c maximum resident set size of process:           30.82    MB
c 
c --- [ shutting down ] ------------------------------------------------------
c 
c exit 20
